c Random Network
p max    10      20
n         1  s
n        10  t
a       1       3       5
a       2       6      24
a       9       4      15
a       5       2      50
a       1       2      38
a      10       6       3
a       2       5       6
a       1       4      26
a       9       5      28
a       2      10      13
a       6       8      26
a       8       6      20
a       3       4      47
a       3       7      17
a       9      10       8
a       2       1      44
a       9       6      40
a      10       5      18
a       1       8      42
a       7       1      21
